55294
38, 8, 44, 19, 49, 54, 53, 34, 47, 30, 4, 18, 12, 9, 14, 2, 42, 33, 27, 1, 31, 25, 11, 45, 52, 16, 15, 36, 39, 46, 10, 22, 29, 21, 23, 17, 48, 26, 55, 28, 6, 3, 43, 40, 7, 37, 51, 13, 32, 41, 35, 5, 24, 20, 50
